{"lblp_lower": [272.51660451494814, 280.9620955234161, 284.7814814814816, 286.4914537857375, 290.1188432835822, 292.3197095036553, 294.3607142857143, 294.5], "cuttingPlaneBendInfo": [{"tot_cut_value": 0, "TOT_gen_cut": 0, "tot_time_opt": 0, "max_time_opt": 0}, {"tot_cut_value": 0, "TOT_gen_cut": 0, "tot_time_opt": 0, "max_time_opt": 0}, {"tot_cut_value": 0, "TOT_gen_cut": 0, "tot_time_opt": 0, "max_time_opt": 0}, {"tot_cut_value": 0, "TOT_gen_cut": 0, "tot_time_opt": 0, "max_time_opt": 0}, {"tot_cut_value": 0, "TOT_gen_cut": 0, "tot_time_opt": 0, "max_time_opt": 0}, {"tot_cut_value": 0, "TOT_gen_cut": 0, "tot_time_opt": 0, "max_time_opt": 0}, {"tot_cut_value": 0, "TOT_gen_cut": 0, "tot_time_opt": 0, "max_time_opt": 0}, {"tot_cut_value": 0, "TOT_gen_cut": 0, "tot_time_opt": 0, "max_time_opt": 0}], "time_compress": [0, 0, 0, 0, 0, 0, 0, 0], "ub_lp": [420.0999999999999, 418.10000000000014, 418.1, 386.8999999999999, 295.1, 294.50000000000006, 294.5, 294.5], "prob_sizes_at_start": [{"timeGraph": 42, "ngGraph": 27}, {"timeGraph": 128, "ngGraph": 63}, {"timeGraph": 127, "ngGraph": 90}, {"timeGraph": 128, "ngGraph": 186}, {"timeGraph": 161, "ngGraph": 390}, {"timeGraph": 219, "ngGraph": 807}, {"timeGraph": 236, "ngGraph": 750}, {"timeGraph": 244, "ngGraph": 846}], "prob_sizes_after_compress": [{"timeGraph": 6, "ngGraph": 18}, {"timeGraph": 49, "ngGraph": 15}, {"timeGraph": 50, "ngGraph": 40}, {"timeGraph": 42, "ngGraph": 77}, {"timeGraph": 86, "ngGraph": 105}, {"timeGraph": 87, "ngGraph": 147}, {"timeGraph": 75, "ngGraph": 129}, {"timeGraph": 57, "ngGraph": 172}], "prob_sizes_after_split": [{"timeGraph": 128, "ngGraph": 63}, {"timeGraph": 127, "ngGraph": 90}, {"timeGraph": 128, "ngGraph": 186}, {"timeGraph": 161, "ngGraph": 390}, {"timeGraph": 219, "ngGraph": 807}, {"timeGraph": 236, "ngGraph": 750}, {"timeGraph": 244, "ngGraph": 846}, {"timeGraph": 110, "ngGraph": 244}], "did_compress": [true, true, true, true, true, true, true, true], "lp_time_project": [1.1664347648620605, 0.08881497383117676, 0.22800683975219727, 0.4265308380126953, 0.48413681983947754, 0.3420848846435547, 0.5066001415252686, 0.5058338642120361], "lp_time_LB": [0.009448051452636719, 0.021478891372680664, 0.02785205841064453, 0.038657188415527344, 0.07757711410522461, 0.1208338737487793, 0.08503293991088867, 0.04717588424682617], "ilp_time": [], "history_of_graphs_by_iter": [], "ROOT_LP_PRIOR_ADDING_CUTS": 294.5, "OUR_ilp_objective": 294.5, "OUR_MIP_Lower_Bound": 294.5, "OUR_ilp_time": 0.06811308860778809, "OUR_gurobi_MILP_str": "Gurobi Optimizer version 12.0.1 build v12.0.1rc0 (mac64[arm] - Darwin 24.5.0 24F74)\n\nCPU model: Apple M1\nThread count: 8 physical cores, 8 logical processors, using up to 8 threads\n\nNon-default parameters:\nTimeLimit  3000\n\nWLS license 2690165 - registered to Optym\nOptimize a model with 2977 rows, 3829 columns and 16816 nonzeros\nModel fingerprint: 0xa1056216\nVariable types: 52 continuous, 3777 integer (776 binary)\nCoefficient statistics:\n  Matrix range     [1e+00, 2e+02]\n  Objective range  [2e+00, 8e+01]\n  Bounds range     [1e+00, 2e+02]\n  RHS range        [1e+00, 2e+02]\nUsing branch priorities.\nPresolve removed 2607 rows and 2959 columns\nPresolve time: 0.06s\nPresolved: 370 rows, 870 columns, 2602 nonzeros\nVariable types: 32 continuous, 838 integer (747 binary)\nFound heuristic solution: objective 368.6000000\nFound heuristic solution: objective 359.2000000\n\nRoot relaxation: objective 2.945000e+02, 387 iterations, 0.00 seconds (0.00 work units)\n\n    Nodes    |    Current Node    |     Objective Bounds      |     Work\n Expl Unexpl |  Obj  Depth IntInf | Incumbent    BestBd   Gap | It/Node Time\n\n*    0     0               0     294.5000000  294.50000  0.00%     -    0s\n\nExplored 1 nodes (387 simplex iterations) in 0.07 seconds (0.07 work units)\nThread count was 8 (of 8 available processors)\n\nSolution count 3: 294.5 359.2 368.6 \n\nOptimal solution found (tolerance 1.00e-04)\nBest objective 2.945000000000e+02, best bound 2.945000000000e+02, gap 0.0000%\n", "jy_opt": {"ParetoEps": 1e-05, "turn_off_time_windows": false, "deactivate_time_graph": false, "deactivate_demand_graph": false, "epsilon": 0.0001, "weight_slack_projector": 1e-05, "weight_compress": 0.01, "num_cust_use": 25, "dem_step_sz": 1, "time_step_sz": 1, "use_compression": 1, "max_iterations_loop_compress_project": 100, "do_round_dist_times": 1, "my_shift_bet_time_win": 0.0001, "num_terms_per_bin_init_construct": 100, "allOneBig_init": 0, "min_inc_2_compress": 1e-05, "save_graph_each_iter": 0, "use_Xpress": 0, "use_ineq": 1, "xpress_file_loc": "/Users/julian/Documents/FICO_Xpress_Config/xpauth.xpr", "run_baseline": 0, "verbose": 0, "use_NG_graph": 1, "num_NG": 9, "in_demo_mode": 0, "threshold_split": 0.1, "offset_cost_edge_project": 0, "use_classic_compress": 1, "use_classic_compress_last": 1, "num_thresh_split_projector": 1000, "lplb_solver": 4, "compresss_solver": 0, "proj_solver": 4, "use_julians_custom_lp_solver": 0, "do_ilp": 1, "roundingDiscretization_num_digits_keep": 3, "doExrtraRemovalEdgesLB": 0, "use_gurobi": 1, "max_ILP_time": 3000, "use_fancy_ng_graph": 1, "use_dem_graph": 0, "use_time_graph": 1, "num_multiplys_demand": 0, "DEBUG_ALLOW_DUMB_EDGES": 0, "add_all_ng_split_at_end": 0, "do_split_based_init": 0, "think_compress": [0], "use_delta_in_milp": 1, "use_delta_in_lp": 1, "turn_off_non_active_fg_project": 0, "use_new_valid_ineq": 0, "digit_mult_use": 10, "use_branch_on_g": true, "LAB_MP_ON": 0, "LAB_MP_neigh_use_power": 9, "LAB_MP_num_ineq_use": 10, "do_remove_actions_from_incumbant": true, "ub_use_remove": 294.5, "use_packing_in_construction": 1, "maxVarsAdd_in_ITER": 10, "use_ng_size_init": 0, "do_presolve": 0, "use_diving_ineq": 1, "BEND_MIN_LP_OBJECTIVE_CUT": 0.1, "BEND_USE_RAND": 0, "BEND_MAX_SIZE_CHOOSE_K": 230, "BEND_VAL_STOP_ADDING_CUTS": 100000000, "BEND_MY_SIZES_USE": [9], "NUMERICAL_BEND_OFFSET_COST_CUT": 0.0001, "NUMERICAL_BEND_EPSILON_MULT_PARETO_OBJ": 0.001, "NO_PARETO_NUMERICAL_BEND_OFFSET_COST_CUT": 0, "NO_PARETO_BEND_VAL_STOP_ADDING_CUTS": 1, "NO_PARETO_EPSILON_MAX_VAL_CON": 0.01, "BENDERS_NEIGH_SZ_USE": 9, "Actions_of_given_sol": [], "all_vars_binary": 1, "restore_after_each_step": 1, "use_ng": 1, "compress_solver": 1, "DEBUG_NG_turn_off_CLEAN": false, "max_nodes_split": Infinity}, "output_ilp_solution": {"delta_capRem_0": 2.0, "delta_timeRem_0": 75.0, "delta_capRem_1": 17.0, "delta_timeRem_1": 194.0, "delta_capRem_2": 3.0, "delta_timeRem_2": 88.0, "delta_capRem_3": 9.0, "delta_timeRem_3": 137.0, "delta_capRem_4": 5.0, "delta_timeRem_4": 122.0, "delta_capRem_5": 14.0, "delta_timeRem_5": 180.0, "delta_capRem_6": 12.0, "delta_timeRem_6": 167.0, "delta_capRem_7": 10.0, "delta_timeRem_7": 152.0, "delta_capRem_8": 9.0, "delta_timeRem_8": 106.3, "delta_capRem_9": 3.0, "delta_timeRem_9": 79.0, "delta_capRem_10": 7.0, "delta_timeRem_10": 91.0, "delta_capRem_11": 20.0, "delta_timeRem_11": 207.7, "delta_capRem_12": 10.0, "delta_timeRem_12": 121.3, "delta_capRem_13": 18.0, "delta_timeRem_13": 194.7, "delta_capRem_14": 12.0, "delta_timeRem_14": 137.1, "delta_capRem_15": 15.0, "delta_timeRem_15": 164.7, "delta_capRem_16": 17.0, "delta_timeRem_16": 179.7, "delta_capRem_17": 9.0, "delta_timeRem_17": 110.0, "delta_capRem_18": 13.0, "delta_timeRem_18": 125.3, "delta_capRem_19": 14.0, "delta_timeRem_19": 140.3, "delta_capRem_20": 7.0, "delta_timeRem_20": 91.4, "delta_capRem_21": 18.0, "delta_timeRem_21": 152.3, "delta_capRem_22": 6.0, "delta_timeRem_22": 79.4, "delta_capRem_23": 1.0, "delta_timeRem_23": 46.0, "delta_capRem_24": 3.0, "delta_timeRem_24": 66.4, "act_0_26": 1, "act_1_5": 1, "act_2_0": 1, "act_3_4": 1, "act_4_2": 1, "act_5_6": 1, "act_6_7": 1, "act_7_3": 1, "act_8_10": 1, "act_9_26": 1, "act_10_9": 1, "act_11_13": 1, "act_12_8": 1, "act_13_16": 1, "act_14_12": 1, "act_15_14": 1, "act_16_15": 1, "act_17_20": 1, "act_18_17": 1, "act_19_18": 1, "act_20_22": 1, "act_21_19": 1, "act_22_24": 1, "act_23_26": 1, "act_24_23": 1, "act_25_1": 1, "act_25_11": 1, "act_25_21": 1}, "Actions_of_given_sol": "none just used source and sink terms", "actions_used": ["act_0_26", "act_1_5", "act_2_0", "act_3_4", "act_4_2", "act_5_6", "act_6_7", "act_7_3", "act_8_10", "act_9_26", "act_10_9", "act_11_13", "act_12_8", "act_13_16", "act_14_12", "act_15_14", "act_16_15", "act_17_20", "act_18_17", "act_19_18", "act_20_22", "act_21_19", "act_22_24", "act_23_26", "act_24_23", "act_25_1", "act_25_11", "act_25_21"], "init_default_solution_is_empty": false, "objective_of_initial_sol": 1884.3999999999999, "my_paths": "[[25, 1, 5, 6, 7, 3, 4, 2, 0, 26], [25, 11, 13, 16, 15, 14, 12, 8, 10, 9, 26], [25, 21, 19, 18, 17, 20, 22, 24, 23, 26]]"}